\* Problem: Unknown *\

Maximize
 obj: + xp_0_0 + xp_1_0 + xp_1_1 + xp_2_0 + xp_2_1 + xp_3_0 + xp_3_1
 + xp_3_2 + xp_4_0 + xp_4_1 + xp_5_0 + xp_6_0 + xp_7_0 + xp_8_0 + xp_9_0
 + xp_9_1 + xp_10_0 + xp_11_0 + xp_11_1 + xp_12_0 + xp_12_1 + xp_13_0
 + xp_13_1 + xp_13_2 + xp_14_0 + xp_14_1 + xp_15_0 + xp_16_0 + xp_17_0
 + xp_17_1 + xp_18_0 + xp_18_1 + xp_18_2 + xp_18_3 + xp_18_4 + xp_19_0
 + xp_19_1 + xp_20_0 + xp_21_0 + xp_22_0 + xp_22_1 + xp_23_0 + xp_24_0
 + xp_24_1 + xp_24_2 + xp_24_3 + xp_24_4 + xp_25_0 + xp_26_0 + xp_26_1
 + xp_26_2 + xp_26_3 + xp_26_4 + xp_27_0 + xp_27_1 + xp_28_0 + xp_28_1
 + xp_29_0 + xp_30_0 + xp_30_1 + xp_30_2 + xp_31_0 + xp_32_0 + xp_32_1
 + xp_33_0 + xp_34_0 + xp_34_1 + xp_35_0 + xp_36_0 + xp_37_0 + xp_38_0
 + xp_38_1 + xp_39_0 + xp_40_0 + xp_40_1 + xp_40_2 + xp_41_0 + xp_41_1
 + xp_42_0 + xp_42_1 + xp_42_2 + xp_43_0 + xp_44_0 + xp_44_1 + xp_45_0
 + xp_45_1 + xp_46_0 + xp_47_0 + xp_48_0 + xp_48_1 + xp_49_0 + xp_50_0
 + xp_50_1 + xp_51_0 + xp_52_0 + xp_53_0 + xp_53_1 + xp_54_0 + xp_55_0
 + xp_56_0 + xp_57_0 + xp_57_1 + xp_58_0 + xp_58_1 + xp_59_0 + xp_60_0
 + xp_60_1 + xp_61_0 + xp_61_1 + xp_62_0 + xp_63_0 + xp_63_1 + xp_64_0
 + xp_65_0 + xp_65_1 + xp_66_0 + xp_67_0 + xp_67_1 + xp_68_0 + xp_68_1
 + xp_68_2 + xp_69_0 + xp_70_0 + xp_71_0 + xp_72_0 + xp_73_0 + xp_74_0
 + xp_74_1 + xp_75_0 + xp_75_1 + xp_76_0 + xp_77_0 + xp_77_1 + xp_77_2
 + xp_78_0 + xp_78_1 + xp_78_2 + xp_78_3 + xp_79_0 + xp_79_1 + xp_80_0
 + xp_80_1 + xp_81_0 + xp_81_1 + xp_81_2 + xp_81_3 + xp_82_0 + xp_82_1
 + xp_82_2 + xp_82_3 + xp_83_0 + xp_83_1 + xp_84_0 + xp_85_0 + xp_85_1
 + xp_85_2 + xp_85_3 + xp_85_4 + xp_86_0 + xp_86_1 + xp_87_0 + xp_88_0
 + xp_88_1 + xp_89_0 + xp_89_1 + xp_90_0 + xp_90_1 + xp_90_2 + xp_91_0
 + xp_91_1 + xp_91_2 + xp_92_0 + xp_92_1 + xp_92_2 + xp_93_0 + xp_94_0
 + xp_94_1 + xp_94_2 + xp_95_0 + xp_95_1 + xp_95_2 + xp_96_0 + xp_96_1
 + xp_97_0 + xp_98_0 + xp_98_1 + xp_98_2 + xp_98_3 + xp_99_0 + xp_99_1
 + xp_99_2 + xp_100_0 + xp_101_0 + xp_102_0 + xp_103_0 + xp_104_0
 + xp_104_1 + xp_105_0 + xp_105_1 + xp_106_0 + xp_106_1 + xp_106_2
 + xp_107_0 + xp_108_0 + xp_108_1 + xp_108_2 + xp_109_0 + xp_109_1
 + xp_110_0 + xp_111_0 + xp_111_1 + xp_112_0 + xp_112_1 + xp_113_0
 + xp_114_0 + xp_115_0 + xp_115_1 + xp_116_0 + xp_116_1 + xp_117_0
 + xp_118_0 + xp_119_0 + xp_119_1 + xp_119_2 + xp_120_0 + xp_120_1
 + xp_120_2 + xp_121_0 + xp_122_0 + xp_123_0 + xp_123_1 + xp_124_0
 + xp_124_1 + xp_124_2 + xp_125_0 + xp_125_1 + xp_126_0 + xp_126_1
 + xp_126_2 + xp_126_3 + xp_126_4 + xp_127_0 + xp_127_1 + xp_128_0
 + xp_128_1 + xp_128_2 + xp_129_0 + xp_129_1 + xp_130_0 + xp_131_0
 + xp_131_1 + xp_131_2

Subject To
 r_1: + xp_128_2 + xp_128_1 + xp_123_1 + xp_122_0 + xp_121_0 + xp_108_1
 + xp_107_0 + xp_78_3 + xp_67_1 + xp_57_1 + xp_40_2 + xp_40_1 + xp_25_0
 + xp_22_1 + xp_18_4 + xp_18_3 + xp_18_2 + xp_18_1 + xp_16_0 + xp_13_2
 + xp_13_1 + xp_4_1 + xp_4_0 <= 40000
 r_2: + xp_131_2 + xp_131_1 + xp_127_1 + xp_126_1 + xp_120_2 + xp_120_0
 + xp_94_1 + xp_93_0 + xp_90_1 + xp_89_1 + xp_85_4 + xp_85_3 + xp_85_2
 + xp_85_1 + xp_85_0 + xp_77_2 + xp_77_1 + xp_75_1 + xp_75_0 + xp_74_1
 + xp_71_0 + xp_66_0 + xp_65_1 + xp_65_0 + xp_61_1 + xp_55_0 + xp_52_0
 + xp_48_1 + xp_48_0 + xp_42_2 + xp_42_1 + xp_38_1 + xp_32_1 + xp_32_0
 + xp_28_1 + xp_28_0 + xp_24_4 + xp_24_3 + xp_24_2 + xp_24_0 + xp_19_1
 + xp_19_0 + xp_12_1 + xp_1_1 <= 38627.5886275886
 r_3: + xp_126_4 + xp_124_1 + xp_114_0 + xp_106_2 + xp_105_1 + xp_98_3
 + xp_95_1 + xp_94_2 + xp_92_2 + xp_91_2 + xp_85_4 + xp_85_3 + xp_83_1
 + xp_76_0 + xp_68_2 + xp_48_1 + xp_41_1 + xp_34_0 + xp_30_2 + xp_26_4
 + xp_26_3 + xp_24_4 <= 40000
 r_4: + xp_119_2 + xp_117_0 + xp_112_1 + xp_111_1 + xp_104_1 + xp_95_2
 + xp_95_0 + xp_91_1 + xp_91_0 + xp_88_1 + xp_84_0 + xp_82_3 + xp_82_1
 + xp_81_3 + xp_81_2 + xp_79_1 + xp_79_0 + xp_46_0 + xp_44_1 + xp_43_0
 + xp_40_2 + xp_40_1 + xp_40_0 + xp_34_1 + xp_27_1 + xp_18_4 + xp_18_3
 + xp_3_2 <= 40000
 r_5: + xp_130_0 + xp_119_2 + xp_112_1 + xp_111_1 + xp_104_1 + xp_99_0
 + xp_88_1 + xp_82_3 + xp_82_1 + xp_81_3 + xp_81_2 + xp_44_1 + xp_27_1
 + xp_18_4 + xp_18_3 + xp_7_0 + xp_3_2 + xp_2_0 <= 40000
 r_6: + xp_126_4 + xp_126_2 + xp_119_0 + xp_114_0 + xp_95_1 + xp_92_2
 + xp_92_1 + xp_91_2 + xp_83_1 + xp_83_0 + xp_82_2 + xp_81_0 + xp_70_0
 + xp_68_2 + xp_68_1 + xp_58_1 + xp_53_0 + xp_48_1 + xp_45_0 + xp_34_0
 + xp_32_1 + xp_30_2 + xp_30_1 + xp_18_1 <= 40000
 r_7: + xp_119_1 + xp_104_0 + xp_88_0 + xp_82_0 + xp_81_1 + xp_78_2
 + xp_53_1 + xp_50_1 + xp_45_1 + xp_44_0 + xp_27_0 + xp_18_2 + xp_18_0
 + xp_4_1 + xp_3_1 <= 40000
 r_8: + xp_131_2 + xp_131_1 + xp_127_1 + xp_126_1 + xp_120_2 + xp_120_0
 + xp_118_0 + xp_103_0 + xp_94_1 + xp_90_1 + xp_89_1 + xp_77_2 + xp_77_1
 + xp_74_1 + xp_71_0 + xp_61_1 + xp_55_0 + xp_42_2 + xp_42_1 + xp_38_1
 + xp_32_1 + xp_32_0 + xp_24_4 + xp_24_3 + xp_24_2 + xp_24_0 + xp_12_1
 + xp_1_1 <= 40000
 r_9: + xp_131_0 + xp_127_0 + xp_123_1 + xp_122_0 + xp_120_1 + xp_108_1
 + xp_78_3 + xp_77_0 + xp_67_1 + xp_57_1 + xp_42_0 + xp_33_0 + xp_24_1
 <= 40000
 r_10: + xp_112_1 + xp_111_1 + xp_106_0 + xp_99_0 + xp_98_0 + xp_88_1
 + xp_88_0 + xp_85_0 + xp_78_2 + xp_50_1 + xp_26_0 + xp_24_0 + xp_8_0
 + xp_7_0 + xp_4_1 + xp_3_2 + xp_3_1 + xp_2_0 <= 40000
 r_11: + xp_119_0 + xp_112_0 + xp_111_0 + xp_95_1 + xp_91_2 + xp_82_2
 + xp_81_0 + xp_78_3 + xp_78_1 + xp_78_0 + xp_59_0 + xp_53_0 + xp_50_0
 + xp_49_0 + xp_45_0 + xp_34_0 + xp_18_1 + xp_4_0 + xp_3_0 <= 40000
 r_12: + xp_129_1 + xp_128_1 + xp_128_0 + xp_123_0 + xp_119_2 + xp_119_1
 + xp_117_0 + xp_111_1 + xp_108_2 + xp_101_0 + xp_95_0 + xp_91_1
 + xp_82_1 + xp_82_0 + xp_81_3 + xp_81_1 + xp_80_1 + xp_79_1 + xp_78_2
 + xp_78_0 + xp_73_0 + xp_63_1 + xp_60_1 + xp_50_1 + xp_46_0 + xp_45_1
 + xp_44_1 + xp_44_0 + xp_40_1 + xp_40_0 + xp_18_3 + xp_18_2 + xp_18_0
 + xp_17_1 + xp_15_0 + xp_14_0 + xp_13_1 + xp_13_0 + xp_9_0 + xp_4_1
 <= 38677.0428015564
 r_13: + xp_129_0 + xp_128_2 + xp_126_3 + xp_123_1 + xp_120_2 + xp_120_1
 + xp_112_1 + xp_109_1 + xp_100_0 + xp_96_1 + xp_95_2 + xp_91_0
 + xp_90_0 + xp_82_3 + xp_81_2 + xp_80_0 + xp_79_0 + xp_75_1 + xp_68_0
 + xp_63_0 + xp_60_0 + xp_53_1 + xp_40_2 + xp_34_1 + xp_31_0 + xp_30_0
 + xp_18_4 + xp_17_0 + xp_13_2 + xp_9_1 <= 38677.0428015564
 r_14: + xp_131_2 + xp_131_1 + xp_131_0 + xp_126_4 + xp_126_2 + xp_125_1
 + xp_125_0 + xp_124_2 + xp_124_1 + xp_124_0 + xp_115_1 + xp_115_0
 + xp_106_2 + xp_106_1 + xp_99_2 + xp_99_1 + xp_98_3 + xp_98_2 + xp_98_1
 + xp_94_2 + xp_94_1 + xp_94_0 + xp_92_2 + xp_92_1 + xp_86_1 + xp_86_0
 + xp_85_4 + xp_85_3 + xp_85_2 + xp_85_1 + xp_77_2 + xp_77_1 + xp_77_0
 + xp_68_2 + xp_68_1 + xp_65_1 + xp_65_0 + xp_58_1 + xp_56_0 + xp_51_0
 + xp_48_1 + xp_41_1 + xp_41_0 + xp_38_1 + xp_38_0 + xp_35_0 + xp_32_1
 + xp_30_2 + xp_30_1 + xp_26_4 + xp_26_3 + xp_26_2 + xp_26_1 + xp_24_4
 + xp_24_3 + xp_24_2 + xp_24_1 + xp_20_0 + xp_19_1 + xp_19_0 + xp_12_1
 + xp_12_0 + xp_2_1 + xp_0_0 <= 38677.0428015564
 r_15: + xp_131_2 + xp_131_0 + xp_126_4 + xp_126_3 + xp_126_2 + xp_125_0
 + xp_124_1 + xp_124_0 + xp_120_2 + xp_120_1 + xp_116_0 + xp_115_0
 + xp_109_1 + xp_99_2 + xp_98_3 + xp_98_1 + xp_96_1 + xp_94_2 + xp_94_0
 + xp_92_2 + xp_92_1 + xp_90_0 + xp_89_1 + xp_89_0 + xp_86_0 + xp_85_3
 + xp_85_1 + xp_77_2 + xp_77_0 + xp_75_1 + xp_68_2 + xp_68_1 + xp_68_0
 + xp_65_0 + xp_58_1 + xp_51_0 + xp_48_1 + xp_42_2 + xp_42_0 + xp_38_0
 + xp_36_0 + xp_32_1 + xp_28_0 + xp_26_3 + xp_26_1 + xp_24_3 + xp_24_1
 + xp_19_1 + xp_12_0 + xp_11_1 + xp_0_0 <= 38677.0428015564
 r_16: + xp_128_0 + xp_123_0 + xp_108_2 + xp_108_0 + xp_78_2 + xp_78_1
 + xp_78_0 + xp_73_0 + xp_67_0 + xp_57_0 + xp_46_0 + xp_44_1 + xp_44_0
 + xp_40_0 + xp_22_0 + xp_18_0 + xp_13_0 + xp_6_0 <= 40000
 r_17: + xp_129_1 + xp_128_1 + xp_126_0 + xp_124_2 + xp_119_2 + xp_119_1
 + xp_111_1 + xp_109_0 + xp_97_0 + xp_95_0 + xp_91_1 + xp_90_2 + xp_81_3
 + xp_81_1 + xp_80_1 + xp_79_1 + xp_63_1 + xp_62_0 + xp_61_0 + xp_60_1
 + xp_47_0 + xp_45_1 + xp_40_1 + xp_22_1 + xp_18_3 + xp_18_2 + xp_17_1
 + xp_13_1 + xp_9_0 + xp_4_1 + xp_1_0 <= 38627.5886275886
 r_18: + xp_126_3 + xp_126_1 + xp_126_0 + xp_106_0 + xp_99_0 + xp_98_0
 + xp_92_0 + xp_85_0 + xp_68_0 + xp_58_0 + xp_48_0 + xp_32_0 + xp_30_0
 + xp_26_0 + xp_24_0 + xp_5_0 + xp_2_0 <= 40000
 r_19: + xp_131_1 + xp_125_1 + xp_124_2 + xp_116_1 + xp_115_1 + xp_110_0
 + xp_108_2 + xp_106_2 + xp_106_1 + xp_99_1 + xp_98_2 + xp_94_1
 + xp_86_1 + xp_85_4 + xp_85_2 + xp_78_0 + xp_77_1 + xp_65_1 + xp_56_0
 + xp_42_1 + xp_38_1 + xp_28_1 + xp_26_4 + xp_26_2 + xp_24_4 + xp_24_2
 + xp_19_0 + xp_14_0 + xp_12_1 + xp_11_0 + xp_3_0 + xp_2_1
 <= 38677.0428015564
 r_20: + xp_129_0 + xp_128_2 + xp_123_1 + xp_119_0 + xp_112_1 + xp_112_0
 + xp_111_0 + xp_108_1 + xp_108_0 + xp_107_0 + xp_95_2 + xp_95_1
 + xp_91_2 + xp_91_0 + xp_82_3 + xp_82_2 + xp_81_2 + xp_81_0 + xp_80_0
 + xp_79_0 + xp_78_3 + xp_78_1 + xp_69_0 + xp_64_0 + xp_63_0 + xp_60_0
 + xp_50_0 + xp_49_0 + xp_45_0 + xp_40_2 + xp_18_4 + xp_18_1 + xp_17_0
 + xp_14_1 + xp_13_2 + xp_10_0 + xp_9_1 + xp_4_0 <= 38627.5886275886
 r_21: + xp_126_4 + xp_124_1 + xp_113_0 + xp_106_2 + xp_105_1 + xp_99_2
 + xp_99_1 + xp_98_3 + xp_94_2 + xp_92_2 + xp_86_1 + xp_86_0 + xp_85_4
 + xp_85_3 + xp_83_1 + xp_77_2 + xp_77_1 + xp_77_0 + xp_68_2 + xp_65_1
 + xp_65_0 + xp_48_1 + xp_41_1 + xp_38_1 + xp_38_0 + xp_30_2 + xp_26_4
 + xp_26_3 + xp_24_4 + xp_20_0 + xp_2_1 + xp_0_0 <= 40000
 r_22: + xp_126_2 + xp_124_2 + xp_124_0 + xp_106_1 + xp_105_0 + xp_98_2
 + xp_98_1 + xp_94_1 + xp_94_0 + xp_92_1 + xp_85_2 + xp_85_1 + xp_83_0
 + xp_68_1 + xp_58_1 + xp_41_0 + xp_32_1 + xp_30_1 + xp_26_2 + xp_26_1
 + xp_24_3 + xp_24_2 + xp_24_1 <= 40000
 r_23: + xp_128_2 + xp_128_1 + xp_128_0 + xp_119_2 + xp_119_1 + xp_117_0
 + xp_112_1 + xp_111_1 + xp_104_1 + xp_104_0 + xp_100_0 + xp_95_2
 + xp_95_0 + xp_91_1 + xp_91_0 + xp_84_0 + xp_82_3 + xp_82_1 + xp_82_0
 + xp_81_3 + xp_81_2 + xp_81_1 + xp_80_1 + xp_80_0 + xp_79_1 + xp_79_0
 + xp_78_2 + xp_73_0 + xp_60_1 + xp_60_0 + xp_53_1 + xp_50_1 + xp_46_0
 + xp_45_1 + xp_44_1 + xp_44_0 + xp_40_2 + xp_40_1 + xp_40_0 + xp_34_1
 + xp_21_0 + xp_18_4 + xp_18_3 + xp_18_2 + xp_18_0 + xp_15_0 + xp_9_1
 + xp_9_0 + xp_4_1 + xp_3_2 + xp_3_1 <= 38677.0428015564
 r_24: + xp_128_0 + xp_126_1 + xp_103_0 + xp_94_1 + xp_90_1 + xp_89_1
 + xp_74_1 + xp_61_1 + xp_40_0 + xp_39_0 + xp_38_1 + xp_22_0 + xp_18_0
 + xp_13_0 + xp_12_1 + xp_1_1 <= 40000
 r_25: + xp_131_0 + xp_127_0 + xp_126_4 + xp_126_3 + xp_126_2 + xp_126_0
 + xp_120_1 + xp_94_2 + xp_94_0 + xp_90_2 + xp_90_0 + xp_89_0 + xp_77_0
 + xp_74_0 + xp_61_0 + xp_42_0 + xp_38_0 + xp_24_1 + xp_12_0 + xp_1_0
 <= 40000
 r_26: + xp_128_2 + xp_128_1 + xp_123_1 + xp_121_0 + xp_112_1 + xp_112_0
 + xp_108_1 + xp_107_0 + xp_81_3 + xp_81_2 + xp_81_1 + xp_81_0 + xp_79_1
 + xp_79_0 + xp_78_3 + xp_67_1 + xp_64_0 + xp_60_1 + xp_60_0 + xp_57_1
 + xp_47_0 + xp_40_2 + xp_40_1 + xp_37_0 + xp_29_0 + xp_25_0 + xp_22_1
 + xp_18_4 + xp_18_3 + xp_18_2 + xp_18_1 + xp_17_1 + xp_17_0 + xp_13_2
 + xp_13_1 + xp_4_1 + xp_4_0 <= 38627.5886275886
 r_27: + xp_131_2 + xp_127_1 + xp_125_0 + xp_120_2 + xp_116_0 + xp_115_0
 + xp_108_0 + xp_99_2 + xp_98_3 + xp_98_1 + xp_96_1 + xp_92_2 + xp_92_1
 + xp_89_1 + xp_86_0 + xp_85_3 + xp_85_1 + xp_82_3 + xp_82_2 + xp_78_1
 + xp_77_2 + xp_75_1 + xp_74_1 + xp_72_0 + xp_67_0 + xp_65_0 + xp_58_1
 + xp_57_0 + xp_52_0 + xp_50_0 + xp_48_1 + xp_42_2 + xp_32_1 + xp_28_0
 + xp_26_3 + xp_26_1 + xp_24_3 + xp_23_0 + xp_19_1 + xp_14_1 + xp_11_1
 <= 38627.5886275886
 r_28: + xp_131_1 + xp_126_1 + xp_126_0 + xp_125_1 + xp_124_2 + xp_120_0
 + xp_116_1 + xp_115_1 + xp_109_0 + xp_99_1 + xp_99_0 + xp_98_2
 + xp_98_0 + xp_96_0 + xp_94_1 + xp_92_0 + xp_90_2 + xp_90_1 + xp_86_1
 + xp_85_4 + xp_85_2 + xp_85_0 + xp_77_1 + xp_75_0 + xp_65_1 + xp_58_0
 + xp_54_0 + xp_48_0 + xp_42_1 + xp_38_1 + xp_32_0 + xp_28_1 + xp_26_4
 + xp_26_2 + xp_26_0 + xp_24_4 + xp_24_2 + xp_24_0 + xp_19_0 + xp_12_1
 + xp_11_0 <= 38627.5886275886
 r_29: + xp_129_1 + xp_129_0 + xp_95_2 + xp_95_1 + xp_95_0 + xp_93_0
 + xp_87_0 + xp_71_0 + xp_62_0 + xp_49_0 + xp_45_1 + xp_45_0 + xp_10_0
 + xp_9_1 + xp_9_0 + xp_1_1 + xp_1_0 <= 38627.5886275886
 r_30: + xp_125_1 + xp_125_0 + xp_121_0 + xp_102_0 + xp_99_2 + xp_99_1
 + xp_99_0 + xp_96_1 + xp_96_0 + xp_92_2 + xp_92_1 + xp_92_0 + xp_57_1
 + xp_57_0 + xp_37_0 + xp_26_4 + xp_26_3 + xp_26_2 + xp_26_1 + xp_26_0
 + xp_23_0 + xp_11_1 + xp_11_0 <= 38627.5886275886

Bounds
 0 <= xp_0_0 <= 236.73269209045
 0 <= xp_1_0 <= 61.0567557812427
 0 <= xp_1_1 <= 122.113511562485
 0 <= xp_2_0 <= 12.8211839757242
 0 <= xp_2_1 <= 102.569471805794
 0 <= xp_3_0 <= 60.9685871808366
 0 <= xp_3_1 <= 81.2914495744487
 0 <= xp_3_2 <= 40.6457247872244
 0 <= xp_4_0 <= 703.526652173953
 0 <= xp_4_1 <= 87.9408315217441
 0 <= xp_5_0 <= 1086.92046365663
 0 <= xp_6_0 <= 1797.77980443102
 0 <= xp_7_0 <= 640.368544749698
 0 <= xp_8_0 <= 1514.69247067705
 0 <= xp_9_0 <= 72.3864209334299
 0 <= xp_9_1 <= 36.193210466715
 0 <= xp_10_0 <= 55.017206653423
 0 <= xp_11_0 <= 27.7731091279299
 0 <= xp_11_1 <= 13.8865545639649
 0 <= xp_12_0 <= 1613.05189181345
 0 <= xp_12_1 <= 460.871969089558
 0 <= xp_13_0 <= 84.2671398381555
 0 <= xp_13_1 <= 112.356186450874
 0 <= xp_13_2 <= 56.178093225437
 0 <= xp_14_0 <= 73.5546548888111
 0 <= xp_14_1 <= 147.109309777622
 0 <= xp_15_0 <= 508.776908643554
 0 <= xp_16_0 <= 2649.62073725482
 0 <= xp_17_0 <= 132.458627343471
 0 <= xp_17_1 <= 165.573284179339
 0 <= xp_18_0 <= 120.063591603043
 0 <= xp_18_1 <= 80.0423944020286
 0 <= xp_18_2 <= 40.0211972010143
 0 <= xp_18_3 <= 80.0423944020286
 0 <= xp_18_4 <= 40.0211972010143
 0 <= xp_19_0 <= 590.068358218002
 0 <= xp_19_1 <= 472.054686574402
 0 <= xp_20_0 <= 128.682072292742
 0 <= xp_21_0 <= 275.416665518638
 0 <= xp_22_0 <= 412.077996148134
 0 <= xp_22_1 <= 824.155992296269
 0 <= xp_23_0 <= 52.1737692903254
 0 <= xp_24_0 <= 189.893123124695
 0 <= xp_24_1 <= 37.978624624939
 0 <= xp_24_2 <= 37.978624624939
 0 <= xp_24_3 <= 37.978624624939
 0 <= xp_24_4 <= 37.978624624939
 0 <= xp_25_0 <= 580.788613025258
 0 <= xp_26_0 <= 6.84776129820917
 0 <= xp_26_1 <= 3.42388064910458
 0 <= xp_26_2 <= 1.71194032455229
 0 <= xp_26_3 <= 1.71194032455229
 0 <= xp_26_4 <= 1.71194032455229
 0 <= xp_27_0 <= 226.064291441309
 0 <= xp_27_1 <= 113.032145720654
 0 <= xp_28_0 <= 372.144967547526
 0 <= xp_28_1 <= 297.715974038021
 0 <= xp_29_0 <= 2456.5976288157
 0 <= xp_30_0 <= 81.7910716434168
 0 <= xp_30_1 <= 61.3433037325626
 0 <= xp_30_2 <= 40.8955358217084
 0 <= xp_31_0 <= 191.303820731193
 0 <= xp_32_0 <= 2008.30438005075
 0 <= xp_32_1 <= 251.038047506344
 0 <= xp_33_0 <= 8089.05028641019
 0 <= xp_34_0 <= 56.9716106290922
 0 <= xp_34_1 <= 455.772885032737
 0 <= xp_35_0 <= 261.992996106805
 0 <= xp_36_0 <= 320.118145924544
 0 <= xp_37_0 <= 366.208281786847
 0 <= xp_38_0 <= 298.715218175957
 0 <= xp_38_1 <= 37.3394022719946
 0 <= xp_39_0 <= 1579.23188617434
 0 <= xp_40_0 <= 284.101272658642
 0 <= xp_40_1 <= 284.101272658642
 0 <= xp_40_2 <= 284.101272658642
 0 <= xp_41_0 <= 62.3866321707018
 0 <= xp_41_1 <= 17.8247520487719
 0 <= xp_42_0 <= 151.958582799959
 0 <= xp_42_1 <= 151.958582799959
 0 <= xp_42_2 <= 151.958582799959
 0 <= xp_43_0 <= 493.89845732502
 0 <= xp_44_0 <= 409.161084951365
 0 <= xp_44_1 <= 51.1451356189206
 0 <= xp_45_0 <= 28.4784579311789
 0 <= xp_45_1 <= 14.2392289655894
 0 <= xp_46_0 <= 1611.56772037328
 0 <= xp_47_0 <= 882.259099963906
 0 <= xp_48_0 <= 2593.27365421193
 0 <= xp_48_1 <= 324.159206776492
 0 <= xp_49_0 <= 88.4110640572435
 0 <= xp_50_0 <= 524.867678217672
 0 <= xp_50_1 <= 262.433839108836
 0 <= xp_51_0 <= 712.247996230792
 0 <= xp_52_0 <= 664.901457812702
 0 <= xp_53_0 <= 127.095037485432
 0 <= xp_53_1 <= 63.5475187427158
 0 <= xp_54_0 <= 3707.51168922773
 0 <= xp_55_0 <= 1189.68096742997
 0 <= xp_56_0 <= 96.1478587428811
 0 <= xp_57_0 <= 114.913075862652
 0 <= xp_57_1 <= 91.9304606901214
 0 <= xp_58_0 <= 4056.69608375282
 0 <= xp_58_1 <= 507.087010469103
 0 <= xp_59_0 <= 10684.7779666668
 0 <= xp_60_0 <= 453.627449089522
 0 <= xp_60_1 <= 226.813724544761
 0 <= xp_61_0 <= 1349.60411379995
 0 <= xp_61_1 <= 1079.68329103996
 0 <= xp_62_0 <= 131.723889006753
 0 <= xp_63_0 <= 88.2126847063297
 0 <= xp_63_1 <= 44.1063423531648
 0 <= xp_64_0 <= 998.178767347861
 0 <= xp_65_0 <= 466.118000813723
 0 <= xp_65_1 <= 58.2647501017153
 0 <= xp_66_0 <= 1686.42286211809
 0 <= xp_67_0 <= 225.638143206012
 0 <= xp_67_1 <= 180.51051456481
 0 <= xp_68_0 <= 492.994729170857
 0 <= xp_68_1 <= 657.326305561143
 0 <= xp_68_2 <= 328.663152780571
 0 <= xp_69_0 <= 1725.17296199658
 0 <= xp_70_0 <= 634.086531970761
 0 <= xp_71_0 <= 71.1520605277442
 0 <= xp_72_0 <= 601.353939069987
 0 <= xp_73_0 <= 926.563821667985
 0 <= xp_74_0 <= 850.591877651372
 0 <= xp_74_1 <= 106.323984706422
 0 <= xp_75_0 <= 1574.04463351711
 0 <= xp_75_1 <= 196.755579189639
 0 <= xp_76_0 <= 1728.74379031303
 0 <= xp_77_0 <= 255.277487709205
 0 <= xp_77_1 <= 63.8193719273013
 0 <= xp_77_2 <= 255.277487709205
 0 <= xp_78_0 <= 3122.41016216594
 0 <= xp_78_1 <= 3122.41016216594
 0 <= xp_78_2 <= 15612.0508108297
 0 <= xp_78_3 <= 6244.82032433187
 0 <= xp_79_0 <= 713.195808685158
 0 <= xp_79_1 <= 356.597904342579
 0 <= xp_80_0 <= 150.944643895289
 0 <= xp_80_1 <= 75.4723219476444
 0 <= xp_81_0 <= 116.441331603025
 0 <= xp_81_1 <= 58.2206658015123
 0 <= xp_81_2 <= 58.2206658015123
 0 <= xp_81_3 <= 29.1103329007561
 0 <= xp_82_0 <= 122.627828398188
 0 <= xp_82_1 <= 49.0511313592751
 0 <= xp_82_2 <= 24.5255656796376
 0 <= xp_82_3 <= 24.5255656796376
 0 <= xp_83_0 <= 393.555242679481
 0 <= xp_83_1 <= 112.44435505128
 0 <= xp_84_0 <= 893.83122876721
 0 <= xp_85_0 <= 91.210417120138
 0 <= xp_85_1 <= 136.815625680207
 0 <= xp_85_2 <= 45.605208560069
 0 <= xp_85_3 <= 91.210417120138
 0 <= xp_85_4 <= 45.605208560069
 0 <= xp_86_0 <= 133.928104016906
 0 <= xp_86_1 <= 38.265172576259
 0 <= xp_87_0 <= 141.907362353661
 0 <= xp_88_0 <= 237.283745842988
 0 <= xp_88_1 <= 189.826996674391
 0 <= xp_89_0 <= 1982.85304406685
 0 <= xp_89_1 <= 247.856630508356
 0 <= xp_90_0 <= 12111.1695840371
 0 <= xp_90_1 <= 7266.70175042225
 0 <= xp_90_2 <= 2422.23391680741
 0 <= xp_91_0 <= 607.466962031478
 0 <= xp_91_1 <= 1518.6674050787
 0 <= xp_91_2 <= 607.466962031478
 0 <= xp_92_0 <= 52.2545905073644
 0 <= xp_92_1 <= 7.46494150105205
 0 <= xp_92_2 <= 7.46494150105205
 0 <= xp_93_0 <= 131.062624503707
 0 <= xp_94_0 <= 158.791649331434
 0 <= xp_94_1 <= 52.9305497771447
 0 <= xp_94_2 <= 26.4652748885723
 0 <= xp_95_0 <= 20.5432838946275
 0 <= xp_95_1 <= 13.6955225964183
 0 <= xp_95_2 <= 27.3910451928367
 0 <= xp_96_0 <= 90.2111729822019
 0 <= xp_96_1 <= 25.7746208520577
 0 <= xp_97_0 <= 530.069625641633
 0 <= xp_98_0 <= 31.9464228804865
 0 <= xp_98_1 <= 63.8928457609731
 0 <= xp_98_2 <= 31.9464228804865
 0 <= xp_98_3 <= 15.9732114402433
 0 <= xp_99_0 <= 1.82949845842713
 0 <= xp_99_1 <= 5.48849537528138
 0 <= xp_99_2 <= 9.14749229213564
 0 <= xp_100_0 <= 505.801218379847
 0 <= xp_101_0 <= 251.280511157461
 0 <= xp_102_0 <= 75.3841533472383
 0 <= xp_103_0 <= 1447.90475586941
 0 <= xp_104_0 <= 73.6942551727875
 0 <= xp_104_1 <= 58.95540413823
 0 <= xp_105_0 <= 1296.07842597006
 0 <= xp_105_1 <= 162.009803246258
 0 <= xp_106_0 <= 13.8865545639649
 0 <= xp_106_1 <= 18.5154060852866
 0 <= xp_106_2 <= 9.25770304264329
 0 <= xp_107_0 <= 452.30492008343
 0 <= xp_108_0 <= 284.630284261078
 0 <= xp_108_1 <= 474.383807101797
 0 <= xp_108_2 <= 94.8767614203594
 0 <= xp_109_0 <= 540.106151321197
 0 <= xp_109_1 <= 432.084921056958
 0 <= xp_110_0 <= 133.972188317109
 0 <= xp_111_0 <= 2614.72801364409
 0 <= xp_111_1 <= 326.841001705511
 0 <= xp_112_0 <= 4184.89322874333
 0 <= xp_112_1 <= 523.111653592916
 0 <= xp_113_0 <= 427.838133470729
 0 <= xp_114_0 <= 2411.49938970797
 0 <= xp_115_0 <= 148.123248682293
 0 <= xp_115_1 <= 74.0616243411464
 0 <= xp_116_0 <= 107.080765193241
 0 <= xp_116_1 <= 53.5403825966204
 0 <= xp_117_0 <= 1954.3672387523
 0 <= xp_118_0 <= 3172.74708561447
 0 <= xp_119_0 <= 35.0837555782712
 0 <= xp_119_1 <= 14.0335022313085
 0 <= xp_119_2 <= 14.0335022313085
 0 <= xp_120_0 <= 1454.69373810068
 0 <= xp_120_1 <= 484.897912700228
 0 <= xp_120_2 <= 242.448956350114
 0 <= xp_121_0 <= 75.9792913999796
 0 <= xp_122_0 <= 2287.77680118807
 0 <= xp_123_0 <= 459.35840811592
 0 <= xp_123_1 <= 57.41980101449
 0 <= xp_124_0 <= 107.697945396084
 0 <= xp_124_1 <= 15.3854207708691
 0 <= xp_124_2 <= 15.3854207708691
 0 <= xp_125_0 <= 18.2949845842713
 0 <= xp_125_1 <= 9.14749229213564
 0 <= xp_126_0 <= 2836.0238532801
 0 <= xp_126_1 <= 8508.0715598403
 0 <= xp_126_2 <= 8508.0715598403
 0 <= xp_126_3 <= 2836.0238532801
 0 <= xp_126_4 <= 2836.0238532801
 0 <= xp_127_0 <= 193.375782840737
 0 <= xp_127_1 <= 386.751565681474
 0 <= xp_128_0 <= 90.7695741181074
 0 <= xp_128_1 <= 181.539148236215
 0 <= xp_128_2 <= 136.154361177161
 0 <= xp_129_0 <= 21.8952024341881
 0 <= xp_129_1 <= 27.3690030427351
 0 <= xp_130_0 <= 405.950278419908
 0 <= xp_131_0 <= 257.386186735585
 0 <= xp_131_1 <= 428.976977892642
 0 <= xp_131_2 <= 85.7953955785284

End
